[[74, 75, 66, 67, 68, 59, 58, 49, 57, 56, 65, 64, 55, 46, 47, 48, 39, 40, 38, 29, 37, 28, 19, 30, 31, 41, 32, 33, 23, 21, 22, 13, 20, 11, 10, 2, 12, 3, 4, 14, 5, 6, 7, 8, 9, 18], [17, 16, 15, 24, 25, 26, 27, 35, 36, 44, 34, 42, 43, 45, 54, 53, 52, 51, 50, 60, 61, 62, 63, 72, 81, 71, 70, 80, 69, 78, 77, 79, 88, 89, 90, 99, 98, 97, 96, 87, 86, 95, 94, 93, 92, 91, 82, 83, 84, 85, 76, 73]]